c Output_time 26.03.2020 18:13:09_+0100 1585242789849813757
c ** Program information **
c program_name                          "QBRG_debug"
c version                               "0.3.20"
c date                                  "25.3.2020"
c gid_id                                "673970833836058123f633335630c185360d632e"
c author                                "Oliver Kullmann"
c url                                   "https://github.com/OKullmann/oklibrary/blob/master/Satisfiability/Transformers/Generators/Random/QBRG.cpp"
c ** Machine information **
c machine_name                          "chyna-Lenovo-G50-70"
c bogomips                              3791.08
c ** Compilation information **
c compiler_version                      "g++ 7.5.0"
c compilation_date                      "Mar_26_2020 11:16:30"
c compilation_options                   "--std=c++17 -pedantic -fmax-errors=5 -Wall -Wextra -g -D_GLIBCXX_DEBUG"
c NDEBUG                                0
c OPTIMIZE                              0
c ** Parameters **
c command-line                          "./QBRG_debug" "e40 a40 40" "146*1,1|2-2,1|3-3,1" "" "1,t" ""
c output                                "QuBlRaGe_120_146_1585242789845425978.qdimacs"
c options                               "filtered,renamed"
c num_quantifier_blocks                 3
c  quantifier_blocks                    1:e1-40 2:a41-80 3:e81-120
c num_clause-blocks                     1
c  clause-blocks                        146 * {1-40,1,1/2} | {41-80,1,1/2} | {81-120,1,1/2}
c num_e-seeds                           30+2=32
c  e-seeds                              1 0 1 0 4 120 2 40 1 40 0 40 1 146 3 1 1 1 1 2 2 2 1 1 2 3 3 1 1 2 1 1585242789845425554
p cnf 116 146
e 1 2 3 4 5 6 7 8 9 10 11 12 13 14 15 16 17 18 19 20 21 22 23 24 25 26 27 28 29 30 31 32 33 34 35 36 37 0
a 38 39 40 41 42 43 44 45 46 47 48 49 50 51 52 53 54 55 56 57 58 59 60 61 62 63 64 65 66 67 68 69 70 71 72 73 74 75 76 0
e 77 78 79 80 81 82 83 84 85 86 87 88 89 90 91 92 93 94 95 96 97 98 99 100 101 102 103 104 105 106 107 108 109 110 111 112 113 114 115 116 0
19 40 -77 0
34 -71 -77 0
-36 50 77 0
-9 61 77 0
21 66 77 0
-17 -69 77 0
3 42 -78 0
27 -47 -78 0
10 66 -78 0
11 66 -78 0
-26 -54 78 0
-29 61 78 0
13 69 78 0
-5 56 -79 0
11 76 -79 0
36 -44 79 0
21 -51 79 0
13 65 79 0
-17 -71 79 0
27 75 79 0
35 46 80 0
29 -52 80 0
-27 46 -81 0
-19 61 -81 0
30 46 81 0
-4 40 -82 0
2 -60 -82 0
-24 60 -82 0
20 66 -82 0
18 71 -83 0
3 63 83 0
-20 38 -84 0
3 54 -84 0
26 -38 84 0
-20 66 84 0
24 -58 -85 0
9 -70 -85 0
-29 51 85 0
13 73 85 0
14 -46 -86 0
23 39 86 0
18 63 -87 0
-6 45 87 0
19 -69 87 0
-9 -59 -88 0
-27 -74 -88 0
28 -50 88 0
-7 50 88 0
-10 61 88 0
1 -62 88 0
-29 63 88 0
15 -47 -89 0
-25 58 -89 0
-23 66 -89 0
37 -50 89 0
-31 75 89 0
6 -55 -90 0
27 -68 90 0
24 46 -91 0
-3 64 91 0
-13 64 91 0
18 64 91 0
-33 64 91 0
-29 -69 91 0
36 70 91 0
-6 41 -92 0
-16 -47 -92 0
-21 -54 -92 0
-37 -42 92 0
-19 44 92 0
-8 67 92 0
36 -46 -93 0
-36 53 -93 0
12 64 93 0
-22 66 93 0
-18 -67 93 0
6 -76 93 0
-34 -40 -94 0
-30 59 -94 0
-16 -66 94 0
32 53 -95 0
20 59 -95 0
4 -53 -96 0
16 -46 96 0
-26 -52 96 0
14 47 97 0
22 -69 97 0
-4 -70 98 0
-31 -38 -99 0
-2 -46 -99 0
-11 55 99 0
-22 -55 -100 0
3 -70 -100 0
4 -72 -100 0
-22 73 -100 0
23 52 100 0
19 -59 100 0
13 65 -101 0
26 -63 101 0
8 -66 101 0
-16 -70 101 0
-10 -46 -102 0
-5 52 -102 0
8 -56 102 0
15 -48 103 0
-18 -65 103 0
-23 -45 -104 0
23 57 -104 0
-34 70 -105 0
37 45 105 0
-34 -64 105 0
-22 39 -106 0
25 -66 -106 0
-34 76 -106 0
33 43 106 0
26 -52 106 0
33 54 106 0
28 -60 106 0
-36 -66 106 0
-3 -39 -107 0
-23 -57 -107 0
-32 -42 -108 0
25 -49 -108 0
7 -67 -108 0
7 48 108 0
-5 -70 108 0
15 -40 109 0
-23 -57 109 0
-5 -72 109 0
10 74 109 0
-16 46 -110 0
-22 -63 -110 0
-3 -53 110 0
18 52 -111 0
-23 63 -111 0
-33 -42 111 0
16 48 112 0
-24 40 113 0
24 -45 113 0
28 -45 -114 0
8 56 114 0
-32 -66 -115 0
-30 61 115 0
1 57 -116 0
-17 67 -116 0
21 41 116 0
